% STR2SRT-DCT-verify

hyperperiod_length = 78651;
num_packets = 7;
num_links = 20;

             %   P1  P2   P3   P4   P5   P6   P7  
occupancy = [| 137,   0,   0,   0,   0,   0,   0, % L,0
             | 137,   0,   0,   0,   0,   0,   0, % 0,1
             | 137,   0,   0,   0,   0,   0,   0, % 1,2
             | 137, 133,   0,   0,   0,   0,   0, % 2,L
             |   0, 133,   0,   0,   0, 133,   0, % L,3
             |   0, 133,   0,   0,   0,   0,   0, % 3,2
             |   0,   0, 133,   0,   0,   0,   0, % L,2
             |   0,   0, 133,   0,   0,   0,   0, % 2,4
             |   0,   0, 133,   0,   0,   0,   0, % 4,L
             |   0,   0,   0,  69,   0,   0,   0, % L,4
             |   0,   0,   0,  69,   0,   0,   0, % 4,5             
             |   0,   0,   0,   0, 261,   0,   0, % L,5
             |   0,   0,   0,   0, 261,   0,   0, % 5,3
             |   0,   0,   0,   0, 261,   0,   0, % 3,L
             |   0,   0,   0,   0,   0, 133,   0, % 3,1
             |   0,   0,   0,   0,   0, 133,   0, % 1,L
             |   0,   0,   0,   0,   0,   0, 133, % L,1
             |   0,   0,   0,   0,   0,   0, 133, % 1,3
             |   0,   0,   0,   0,   0,   0, 133, % 3,5
             |   0,   0,   0,  69,   0,   0, 133, |];  % 5,L

% deadline:
% P1 36627   L012L
% P2 37346   L32L
% P3 53521   L24L
% P4 69632   L45L
% P5 78607   L53L
% P6 53521   L31L  
% P7 70253   L135L

             %    P1     P2     P3     P4     P5     P6     P7  
deadline = [| 36627,    -1,    -1,    -1,    -1,    -1,    -1, % L,0
            | 36627,    -1,    -1,    -1,    -1,    -1,    -1, % 0,1
            | 36627,    -1,    -1,    -1,    -1,    -1,    -1, % 1,2
            | 36627, 37346,    -1,    -1,    -1,    -1,    -1, % 2,L
            |    -1, 37346,    -1,    -1,    -1, 53521,    -1, % L,3
            |    -1, 37346,    -1,    -1,    -1,    -1,    -1, % 3,2
            |    -1,    -1, 53521,    -1,    -1,    -1,    -1, % L,2
            |    -1,    -1, 53521,    -1,    -1,    -1,    -1, % 2,4
            |    -1,    -1, 53521,    -1,    -1,    -1,    -1, % 4,L
            |    -1,    -1,    -1, 69632,    -1,    -1,    -1, % L,4
            |    -1,    -1,    -1, 69632,    -1,    -1,    -1, % 4,5             
            |    -1,    -1,    -1,    -1, 78607,    -1,    -1, % L,5
            |    -1,    -1,    -1,    -1, 78607,    -1,    -1, % 5,3
            |    -1,    -1,    -1,    -1, 78607,    -1,    -1, % 3,L
            |    -1,    -1,    -1,    -1,    -1, 53521,    -1, % 3,1
            |    -1,    -1,    -1,    -1,    -1, 53521,    -1, % 1,L
            |    -1,    -1,    -1,    -1,    -1,    -1, 70253, % L,1
            |    -1,    -1,    -1,    -1,    -1,    -1, 70253, % 1,3
            |    -1,    -1,    -1,    -1,    -1,    -1, 70253, % 3,5
            |    -1,    -1,    -1, 69632,    -1,    -1, 70253, |];  % 5,L

% min_start:
% P1 36480     L012L
% P2 37203     L32L
% P3 53378     L24L
% P4 69553     L45L
% P5 70400     L53L
% P6 37489     L31L  
% P7 53905     L135L

             %    P1     P2     P3     P4     P5     P6     P7  
min_start = [| 36480,    -1,    -1,    -1,    -1,    -1,    -1, % L,0
             | 36480,    -1,    -1,    -1,    -1,    -1,    -1, % 0,1
             | 36480,    -1,    -1,    -1,    -1,    -1,    -1, % 1,2
             | 36480, 37203,    -1,    -1,    -1,    -1,    -1, % 2,L
             |    -1, 37203,    -1,    -1,    -1, 37489,    -1, % L,3
             |    -1, 37203,    -1,    -1,    -1,    -1,    -1, % 3,2
             |    -1,    -1, 53378,    -1,    -1,    -1,    -1, % L,2
             |    -1,    -1, 53378,    -1,    -1,    -1,    -1, % 2,4
             |    -1,    -1, 53378,    -1,    -1,    -1,    -1, % 4,L
             |    -1,    -1,    -1, 69553,    -1,    -1,    -1, % L,4
             |    -1,    -1,    -1, 69553,    -1,    -1,    -1, % 4,5             
             |    -1,    -1,    -1,    -1, 70400,    -1,    -1, % L,5
             |    -1,    -1,    -1,    -1, 70400,    -1,    -1, % 5,3
             |    -1,    -1,    -1,    -1, 70400,    -1,    -1, % 3,L
             |    -1,    -1,    -1,    -1,    -1, 37489,    -1, % 3,1
             |    -1,    -1,    -1,    -1,    -1, 37489,    -1, % 1,L
             |    -1,    -1,    -1,    -1,    -1,    -1, 53905, % L,1
             |    -1,    -1,    -1,    -1,    -1,    -1, 53905, % 1,3
             |    -1,    -1,    -1,    -1,    -1,    -1, 53905, % 3,5
             |    -1,    -1,    -1, 69553,    -1,    -1, 53905, |];  % 5,L